solution status: gap limit reached
objective value:                          51304.90909
y#1                                                 1 	(obj:5700)
y#2                                                 1 	(obj:5700)
y#3                                                 1 	(obj:5700)
y#4                                                 1 	(obj:5700)
y#5                                                 1 	(obj:5700)
y#6                                                 1 	(obj:5700)
y#8                                                 1 	(obj:5700)
y#9                                                 1 	(obj:5700)
y#10                                                1 	(obj:5700)
x#1#1                                               1 	(obj:0.06273)
x#2#1                                               1 	(obj:0.06936)
x#3#3                                               1 	(obj:0.02329)
x#4#2                                               1 	(obj:0.01802)
x#5#4                                               1 	(obj:0.01887)
x#6#2                                               1 	(obj:0.00153)
x#7#1                                               1 	(obj:0.03808)
x#8#10                                              1 	(obj:0.07055)
x#9#1                                               1 	(obj:0.04539)
x#10#2                                              1 	(obj:0.02431)
x#11#9                                              1 	(obj:0.02584)
x#12#8                                              1 	(obj:0.03383)
x#13#10                                             1 	(obj:0.05491)
x#14#9                                              1 	(obj:0.00595)
x#15#9                                              1 	(obj:0.051)
x#16#6                                              1 	(obj:0.02142)
x#17#6                                              1 	(obj:0.03383)
x#18#2                                              1 	(obj:0.11611)
x#19#6                                              1 	(obj:0.04148)
x#20#10                                             1 	(obj:0.03162)
x#21#5                                              1 	(obj:0.0493)
x#22#5                                              1 	(obj:0.0629)
x#23#1                                              1 	(obj:0.04641)
x#24#1                                              1 	(obj:0.03111)
x#25#9                                              1 	(obj:0.01003)
x#26#9                                              1 	(obj:0.00697)
x#27#9                                              1 	(obj:0.02482)
x#28#9                                              1 	(obj:0.01751)
x#29#9                                              1 	(obj:0.02771)
x#30#6                                              1 	(obj:0.00459)
x#31#5                                              1 	(obj:0.00969)
x#32#10                                             1 	(obj:0.02618)
x#33#2                                              1 	(obj:0.0221)
x#34#3                                              1 	(obj:0.00544)
x#35#9                                              1 	(obj:0.04369)
x#36#5                                              1 	(obj:0.01836)
x#37#2                                              1 	(obj:0.00238)
x#38#6                                              1 	(obj:0.0544)
x#39#4                                              1 	(obj:0.04964)
x#40#5                                              1 	(obj:0.06307)
x#41#9                                              1 	(obj:0.13243)
x#42#3                                              1 	(obj:0.10659)
x#43#6                                              1 	(obj:0.09248)
x#44#8                                              1 	(obj:0.0612)
x#45#2                                              1 	(obj:0.09792)
x#46#6                                              1 	(obj:0.05814)
x#47#8                                              1 	(obj:0.01122)
x#48#3                                              1 	(obj:0.03468)
x#49#2                                              1 	(obj:0.02686)
x#50#8                                              1 	(obj:0.09537)
x#51#6                                              1 	(obj:0.07089)
x#52#6                                              1 	(obj:0.017)
x#53#8                                              1 	(obj:0.04658)
x#54#10                                             1 	(obj:0.00255)
x#55#6                                              1 	(obj:0.09486)
x#56#8                                              1 	(obj:0.07174)
x#57#1                                              1 	(obj:0.01938)
x#58#4                                              1 	(obj:0.04896)
x#59#8                                              1 	(obj:0.09741)
x#60#10                                             1 	(obj:0.11322)
x#61#1                                              1 	(obj:0.04029)
x#62#8                                              1 	(obj:0.10047)
x#63#5                                              1 	(obj:0.06664)
x#64#8                                              1 	(obj:0.11135)
x#65#6                                              1 	(obj:0.03655)
x#66#3                                              1 	(obj:0.05865)
x#67#1                                              1 	(obj:0.06579)
x#68#2                                              1 	(obj:0.00952)
x#69#10                                             1 	(obj:0.15062)
x#70#5                                              1 	(obj:0.03757)
x#71#9                                              1 	(obj:0.04199)
x#72#5                                              1 	(obj:0.05576)
x#73#5                                              1 	(obj:0.02397)
x#74#1                                              1 	(obj:0.01921)
x#75#3                                              1 	(obj:0.06341)
x#76#5                                              1 	(obj:0.04862)
x#77#3                                              1 	(obj:0.0561)
x#78#4                                              1 	(obj:0.00799)
x#79#1                                              1 	(obj:0.05542)
x#80#8                                              1 	(obj:0.06936)
x#81#2                                              1 	(obj:0.03621)
x#82#3                                              1 	(obj:0.04981)
x#83#4                                              1 	(obj:0.02533)
x#84#3                                              1 	(obj:0.02312)
x#85#3                                              1 	(obj:0.03264)
x#86#10                                             1 	(obj:0.10608)
x#87#4                                              1 	(obj:0.01088)
x#88#8                                              1 	(obj:0.12597)
x#89#4                                              1 	(obj:0.03876)
x#90#10                                             1 	(obj:0.06069)
x#91#5                                              1 	(obj:0.02261)
x#92#4                                              1 	(obj:0.10829)
x#93#6                                              1 	(obj:0.02074)
x#94#4                                              1 	(obj:0.04692)
x#95#3                                              1 	(obj:0.04964)
x#96#10                                             1 	(obj:0.03196)
x#97#2                                              1 	(obj:0.05627)
x#98#10                                             1 	(obj:0.17187)
x#99#4                                              1 	(obj:0.03502)
x#100#2                                             1 	(obj:0.0731)
